70
C49H21 GFN2-xTB mult=4
C -3.698206 -0.692028 0.003836
C -2.464227 -1.402307 0.003769
C -2.466647 -2.814114 0.006577
C -3.690162 -3.502593 0.008402
C -4.886202 -2.807736 0.004851
C -4.900018 -1.428522 0.002850
C -2.479567 1.418746 0.000053
C -1.247461 0.705224 0.000087
C -1.232994 -0.708140 0.000926
C -3.682914 0.706320 0.002890
C -1.241313 3.505442 -0.002467
C -0.041533 2.817072 0.003400
C -0.026025 1.413238 0.000957
C -2.442640 2.827782 -0.006201
C -0.003928 -1.417727 -0.002398
C -0.022123 -2.842014 -0.002838
C -1.233256 -3.496468 0.006605
C 1.181615 0.686309 -0.001884
C 1.220439 -0.689820 -0.003500
C 2.485863 -1.419692 -0.001809
C 2.467174 -2.844413 -0.001271
C 1.242683 -3.572943 -0.007562
C 3.696413 -3.554128 -0.000548
C 3.710675 -4.967429 -0.003296
C 2.485471 -5.681780 -0.009830
C 1.279629 -4.948726 -0.017684
C 3.695833 -0.763773 -0.000118
C 4.933563 -1.441598 0.006579
C 4.927500 -2.859845 0.004620
C 4.933313 -5.678947 -0.001254
C 4.927930 -7.090871 -0.005492
C 3.696027 -7.799208 -0.005330
C 2.496132 -7.075484 -0.009734
C 6.145877 -0.753973 0.011353
C 7.372588 -1.431280 0.010055
C 7.375090 -2.852309 0.007108
C 6.155009 -3.562932 0.005662
C 6.160325 -7.802929 -0.007418
C 6.124956 -9.212214 -0.011806
C 4.922097 -9.890638 -0.010321
C 3.721477 -9.207909 -0.007224
C 6.156552 -4.974508 0.002270
C 7.392171 -5.687881 -0.000425
C 7.363684 -7.088827 -0.007562
C 8.607957 -3.563562 0.004757
C 8.591204 -4.962748 0.002741
C 8.605264 -0.748949 0.003457
C 9.796810 -1.447365 -0.005083
C 9.810735 -2.828277 -0.001033
H -3.685733 -4.583204 0.009009
H -5.819109 -3.353103 0.003445
H -5.838352 -0.893240 -0.002316
H -4.618949 1.246742 0.007692
H -1.235445 4.586044 -0.004982
H 0.896502 3.353524 0.010164
H -3.375358 3.372750 -0.014725
H -1.283493 -4.574140 0.013429
H 2.089749 1.268733 -0.003914
H 0.370563 -5.528996 -0.032131
H 3.743925 0.313714 -0.004466
H 1.557453 -7.611781 -0.013190
H 6.140990 0.327099 0.014021
H 7.057688 -9.756515 -0.015980
H 4.920581 -10.970988 -0.013158
H 2.786751 -9.749185 -0.005737
H 8.297674 -7.632793 -0.012836
H 9.529308 -5.499605 0.000219
H 8.606677 0.331193 0.006042
H 10.731616 -0.905883 -0.015424
H 10.748490 -3.363893 -0.002098
