70
C49H21 GFN2-xTB mult=2
C -3.698026 -0.692097 0.003853
C -2.464032 -1.402390 0.003789
C -2.466547 -2.814293 0.006579
C -3.689965 -3.502610 0.008392
C -4.886115 -2.807681 0.004851
C -4.899923 -1.428585 0.002855
C -2.479418 1.418624 0.000056
C -1.247293 0.705097 0.000095
C -1.232872 -0.708211 0.000947
C -3.682720 0.706208 0.002898
C -1.241314 3.505336 -0.002465
C -0.041425 2.816906 0.003403
C -0.025817 1.413242 0.000953
C -2.442535 2.827730 -0.006202
C -0.003634 -1.417898 -0.002390
C -0.022061 -2.842085 -0.002844
C -1.233039 -3.496716 0.006560
C 1.181934 0.686242 -0.001894
C 1.220531 -0.689837 -0.003514
C 2.485833 -1.419649 -0.001823
C 2.466990 -2.844307 -0.001287
C 1.242630 -3.572935 -0.007572
C 3.696399 -3.554120 -0.000546
C 3.710636 -4.967339 -0.003293
C 2.485398 -5.681745 -0.009818
C 1.279411 -4.948683 -0.017648
C 3.695684 -0.763612 -0.000118
C 4.933497 -1.441546 0.006586
C 4.927405 -2.859858 0.004624
C 4.933269 -5.678919 -0.001261
C 4.927872 -7.090876 -0.005485
C 3.696031 -7.799238 -0.005326
C 2.496113 -7.075320 -0.009723
C 6.145727 -0.754047 0.011359
C 7.372614 -1.431263 0.010057
C 7.375067 -2.852256 0.007108
C 6.154962 -3.562909 0.005662
C 6.160297 -7.802886 -0.007420
C 6.124716 -9.212156 -0.011805
C 4.921897 -9.890597 -0.010319
C 3.721226 -9.207897 -0.007223
C 6.156556 -4.974509 0.002257
C 7.392251 -5.687929 -0.000431
C 7.363651 -7.088840 -0.007565
C 8.607906 -3.563558 0.004751
C 8.591201 -4.962709 0.002737
C 8.605129 -0.748744 0.003461
C 9.796673 -1.447210 -0.005085
C 9.810562 -2.828099 -0.001030
H -3.685702 -4.583215 0.009018
H -5.818997 -3.353091 0.003443
H -5.838219 -0.893237 -0.002314
H -4.618759 1.246633 0.007677
H -1.235399 4.585942 -0.004984
H 0.896530 3.353504 0.010173
H -3.375294 3.372634 -0.014727
H -1.283351 -4.574349 0.013354
H 2.090003 1.268713 -0.003918
H 0.370368 -5.528930 -0.032082
H 3.743769 0.313851 -0.004481
H 1.557458 -7.611691 -0.013180
H 6.140914 0.327053 0.014029
H 7.057445 -9.756478 -0.015982
H 4.920450 -10.970952 -0.013163
H 2.786510 -9.749164 -0.005741
H 8.297619 -7.632804 -0.012839
H 9.529290 -5.499553 0.000230
H 8.606540 0.331393 0.006051
H 10.731520 -0.905787 -0.015442
H 10.748339 -3.363700 -0.002089
