22
C13H9 GFN2-xTB mult=4
C -0.043924 1.440086 0.003248
C 1.243095 0.718222 0.003139
C 1.224878 -0.758030 -0.000878
C 0.034851 -1.421217 -0.001529
C -1.222931 -0.706361 0.002516
C -1.213363 0.741105 0.006406
C 2.439139 1.408408 0.006026
C 3.671064 0.683829 0.004010
C 3.666858 -0.712540 0.000128
C 2.496880 -1.423354 -0.002808
C 1.216592 3.531678 -0.001143
C 2.427467 2.837389 0.003149
C 0.015764 2.873869 -0.000063
H 0.011664 -2.501077 -0.006431
H -2.154015 -1.243619 -0.001374
H -2.160196 1.260551 0.009279
H 4.602183 1.228200 0.004810
H 4.611399 -1.238659 -0.001482
H 2.504984 -2.503572 -0.008508
H 1.233028 4.612660 -0.005607
H 3.364576 3.371324 0.001922
H -0.915357 3.421110 -0.005166
