22
C13H9 GFN2-xTB mult=2
C 0.001301 1.419256 0.005038
C 1.229757 0.710001 0.006155
C 1.229756 -0.708492 0.002581
C -0.003600 -1.388615 -0.002320
C -1.195606 -0.690265 0.000866
C -1.204390 0.691195 0.006827
C 2.458213 1.419249 0.005217
C 3.663907 0.691186 0.005666
C 3.655120 -0.690277 0.001829
C 2.463122 -1.388633 -0.000917
C 1.229757 3.510543 -0.002372
C 2.430535 2.827438 0.002722
C 0.028973 2.827431 -0.001276
H -0.006511 -2.469110 -0.009229
H -2.132286 -1.231060 -0.003460
H -2.141607 1.228909 0.012468
H 4.601109 1.228919 0.002700
H 4.591800 -1.231082 -0.001560
H 2.466021 -2.469110 -0.010587
H 1.229755 4.592131 -0.005138
H 3.364838 3.370207 0.002475
H -0.905328 3.370179 -0.008039
