56
C38H18 GFN2-xTB mult=1
C -6.149963 -0.756839 0.002062
C -4.927202 -1.445693 0.003325
C -4.924563 -2.857655 0.002858
C -6.158085 -3.567834 0.002317
C -7.359458 -2.831067 -0.000047
C -7.345544 -1.452050 -0.001366
C -3.693946 -3.552708 0.000437
C -3.707326 -4.965984 -0.000093
C -4.939126 -5.679151 0.000502
C -6.142047 -4.966111 -0.000902
C -3.693744 -0.763802 0.001564
C -2.483293 -1.419105 -0.004198
C -2.465061 -2.843201 -0.004573
C -2.485857 -5.674250 -0.003885
C -2.500679 -7.077623 -0.006000
C -3.700551 -7.765419 -0.001529
C -4.901767 -7.087956 0.001182
C -1.240875 -3.571032 -0.007899
C -1.278586 -4.946986 -0.005964
C -1.218664 -0.688970 -0.006041
C 0.005530 -1.416803 -0.004982
C 0.023752 -2.840898 -0.008592
C 0.026336 1.414241 -0.000564
C 1.247809 0.705973 0.003472
C 1.234427 -0.707307 0.000028
C -1.180920 0.686993 -0.008285
C 1.241034 3.505409 0.006686
C 2.442240 2.827939 0.010244
C 2.479600 1.419134 0.010393
C 0.041162 2.817612 0.003499
C 2.465055 -1.402352 -0.001038
C 2.467696 -2.814295 -0.007754
C 1.234240 -3.496187 -0.013528
C 3.682516 0.706087 0.012759
C 3.698567 -0.692184 0.006860
C 4.899951 -1.428936 0.005280
C 4.886055 -2.807931 -0.001707
C 3.690478 -3.503121 -0.010787
H -6.145879 0.323673 0.003927
H -8.297731 -3.365909 -0.000178
H -8.278112 -0.907025 -0.006528
H -7.077893 -5.506418 -0.005920
H -3.743259 0.313880 0.004313
H -1.562899 -7.614334 -0.012043
H -3.694827 -8.845564 0.000343
H -5.834082 -7.633093 0.005795
H -0.370050 -5.528723 -0.005557
H -2.089439 1.268747 -0.014050
H 1.235320 4.585558 0.006926
H 3.374574 3.373065 0.011962
H -0.896645 3.354310 0.003081
H 1.283801 -4.573852 -0.019177
H 4.618342 1.246365 0.022371
H 5.838205 -0.894086 0.008572
H 5.818627 -3.352968 -0.001078
H 3.686406 -4.583569 -0.021766
