56
C38H18 GFN2-xTB mult=3
C -6.150139 -0.756837 0.002056
C -4.927291 -1.445856 0.003315
C -4.924739 -2.857730 0.002855
C -6.158249 -3.567899 0.002313
C -7.359537 -2.831118 -0.000054
C -7.345616 -1.451992 -0.001364
C -3.694049 -3.552768 0.000438
C -3.707478 -4.966099 -0.000102
C -4.939264 -5.679260 0.000492
C -6.142229 -4.966216 -0.000909
C -3.693939 -0.764019 0.001573
C -2.483340 -1.419163 -0.004191
C -2.465318 -2.843349 -0.004564
C -2.486042 -5.674246 -0.003898
C -2.500767 -7.077776 -0.006009
C -3.700536 -7.765509 -0.001533
C -4.901851 -7.087999 0.001176
C -1.240949 -3.571044 -0.007889
C -1.278872 -4.947045 -0.005959
C -1.218591 -0.688959 -0.006031
C 0.005788 -1.416655 -0.004971
C 0.023800 -2.840841 -0.008583
C 0.026522 1.414237 -0.000566
C 1.247961 0.706089 0.003473
C 1.234531 -0.707247 0.000026
C -1.180635 0.687053 -0.008292
C 1.241020 3.505500 0.006685
C 2.442324 2.827983 0.010249
C 2.479739 1.419243 0.010397
C 0.041248 2.817766 0.003498
C 2.465231 -1.402278 -0.001053
C 2.467785 -2.814133 -0.007756
C 1.234435 -3.495969 -0.013534
C 3.682698 0.706192 0.012749
C 3.698731 -0.692118 0.006853
C 4.900030 -1.428885 0.005279
C 4.886125 -2.807989 -0.001710
C 3.690655 -3.503122 -0.010782
H -6.145903 0.323672 0.003924
H -8.297838 -3.365899 -0.000189
H -8.278207 -0.907014 -0.006511
H -7.078068 -5.506519 -0.005904
H -3.743436 0.313695 0.004348
H -1.562910 -7.614354 -0.012035
H -3.694865 -8.845652 0.000348
H -5.834128 -7.633190 0.005801
H -0.370299 -5.528785 -0.005542
H -2.089190 1.268808 -0.014085
H 1.235358 4.585645 0.006925
H 3.374619 3.373162 0.011967
H -0.896632 3.354330 0.003078
H 1.283980 -4.573668 -0.019195
H 4.618517 1.246466 0.022366
H 5.838313 -0.894095 0.008592
H 5.818722 -3.352979 -0.001091
H 3.686428 -4.583569 -0.021751
