76
C51H25 GFN2-xTB mult=4
C -6.184135 3.421000 -0.029225
C -4.916302 2.791545 0.008817
C -4.833100 1.412432 -0.346378
C -6.010553 0.709788 -0.714192
C -7.223584 1.363703 -0.712806
C -7.305614 2.720694 -0.373697
C -3.593592 0.756411 -0.285690
C -3.430403 -0.680791 -0.715779
C -4.725799 -1.334050 -1.068132
C -5.890260 -0.685743 -1.077940
C -3.755026 3.482421 0.355989
C -2.517979 2.835607 0.418110
C -2.469462 1.431970 0.157976
C -1.316509 3.511986 0.673681
C -0.076806 2.860280 0.653237
C -0.020850 1.444217 0.478770
C -1.226545 0.723936 0.304880
C -2.492629 -2.852473 0.361823
C -1.258155 -3.513825 0.239719
C -1.233127 -4.938259 0.226013
C -2.446010 -5.653162 0.333203
C -3.626032 -4.988116 0.519740
C -3.644429 -3.591988 0.556415
C -1.229174 -0.666622 0.319197
C -0.018452 -1.374559 0.290189
C -0.018514 -2.797085 0.198521
C -2.567858 -1.353217 0.386165
C 1.213586 0.760729 0.521465
C 1.216198 -0.673209 0.349906
C 1.127231 3.563392 0.836258
C 2.329821 2.891429 0.857635
C 2.381061 1.514830 0.711182
C 1.192944 -3.490797 0.099821
C 1.205189 -4.923540 0.121884
C -0.008680 -5.610992 0.165169
C 2.400234 -1.399410 0.236517
C 2.424919 -2.777792 0.028479
C 3.650738 -3.495858 -0.153671
C 3.654787 -4.896338 0.113857
C 2.433993 -5.583170 0.205550
C 4.877201 -2.879021 -0.559166
C 6.100028 -3.554504 -0.304483
C 6.096688 -4.890303 0.191870
C 4.874949 -5.561700 0.297445
C 6.150074 -1.065234 -1.561269
C 7.337696 -1.647059 -1.178216
C 7.337839 -2.915840 -0.567119
C 4.936511 -1.664403 -1.262883
C 8.536840 -3.573962 -0.227052
C 8.519607 -4.845585 0.309672
C 7.323447 -5.511350 0.495300
H -6.243908 4.469395 0.223787
H -8.122848 0.825394 -0.974678
H -8.268182 3.211348 -0.392206
H -3.029341 -1.076865 1.349837
H -4.665494 -2.359917 -1.400982
H -6.797074 -1.192765 -1.378949
H -3.810429 4.540374 0.570914
H -1.345539 4.574949 0.865135
H -2.417289 -6.733018 0.304325
H -4.550055 -5.534318 0.645738
H -4.577231 -3.083139 0.752069
H -2.819851 -0.690853 -1.636600
H 1.095325 4.635655 0.964318
H 3.249198 3.441206 1.001556
H 3.343456 1.030270 0.755938
H -0.003062 -6.691765 0.189676
H 3.342759 -0.892752 0.354125
H 2.445633 -6.653762 0.350748
H 4.865311 -6.611413 0.554493
H 6.157833 -0.127049 -2.098009
H 8.280430 -1.160971 -1.382136
H 4.025867 -1.211803 -1.624027
H 9.473780 -3.064391 -0.397925
H 9.450234 -5.329456 0.570351
H 7.314531 -6.520767 0.878875
