76
C51H25 GFN2-xTB helicoidal mult=2
C -6.214893 3.380725 0.203804
C -4.950667 2.765043 0.225112
C -4.826075 1.451529 0.771790
C -5.957625 0.843125 1.375692
C -7.203443 1.499490 1.316664
C -7.323678 2.740001 0.722936
C -3.581546 0.782866 0.758366
C -3.451409 -0.379291 1.525126
C -4.552233 -0.962730 2.136667
C -5.799726 -0.394060 2.028254
C -3.793370 3.421752 -0.194105
C -2.553781 2.768108 -0.263475
C -2.468631 1.368189 0.037179
C -1.408791 3.449749 -0.678207
C -0.180625 2.803317 -0.779282
C -0.131608 1.383344 -0.649313
C -1.320814 0.667244 -0.362240
C -2.440251 -2.889235 -1.016790
C -1.211156 -3.583350 -0.932447
C -1.186742 -4.999858 -1.074366
C -2.406188 -5.682274 -1.255877
C -3.599593 -4.993519 -1.320427
C -3.626336 -3.614038 -1.214418
C -1.299041 -0.774897 -0.581916
C -0.047574 -1.448320 -0.614466
C -0.009400 -2.859560 -0.746647
C -2.445031 -1.485892 -0.865752
C 1.121647 0.721839 -0.768144
C 1.174611 -0.728052 -0.615678
C 1.006523 3.521351 -1.047955
C 2.198831 2.865799 -1.153282
C 2.255995 1.476410 -1.008528
C 1.224403 -3.547132 -0.712443
C 1.249617 -4.963212 -0.915255
C 0.045446 -5.660242 -1.068487
C 2.363687 -1.423946 -0.552624
C 2.427812 -2.831902 -0.509124
C 3.662440 -3.539022 -0.412650
C 3.692871 -4.901854 -0.838362
C 2.489825 -5.593577 -1.035030
C 4.888034 -2.950804 0.046484
C 6.118834 -3.567560 -0.297850
C 6.134763 -4.845841 -0.929372
C 4.924350 -5.523698 -1.091949
C 6.138774 -1.229218 1.221414
C 7.330866 -1.735596 0.756326
C 7.347512 -2.933828 0.015708
C 4.932553 -1.824612 0.881169
C 8.554823 -3.528976 -0.402479
C 8.554183 -4.738785 -1.066718
C 7.369036 -5.406616 -1.308581
H -6.303805 4.368236 -0.224056
H -8.065531 1.021802 1.758927
H -8.288654 3.224429 0.677618
H -3.389747 -0.973870 -0.966729
H -4.420808 -1.878228 2.695216
H -6.663915 -0.868684 2.469959
H -3.852218 4.460987 -0.484223
H -1.475681 4.503987 -0.905231
H -2.391483 -6.758094 -1.351616
H -4.524303 -5.535411 -1.458928
H -4.563239 -3.078768 -1.266106
H -2.480957 -0.835317 1.644519
H 0.947066 4.594793 -1.151727
H 3.111446 3.411826 -1.345095
H 3.219949 1.000203 -1.095053
H 0.075423 -6.730761 -1.214420
H 3.298667 -0.892172 -0.602580
H 2.524794 -6.640847 -1.299611
H 4.928269 -6.541123 -1.455868
H 6.134302 -0.356429 1.859493
H 8.267504 -1.250147 0.991679
H 4.019666 -1.442998 1.311698
H 9.485185 -3.024339 -0.186472
H 9.490336 -5.176823 -1.382060
H 7.376585 -6.370635 -1.795621
