76
C51H25 GFN2-xTB mult=2
C -6.173572 3.429285 -0.044167
C -4.902901 2.795958 0.004458
C -4.823472 1.406338 -0.329812
C -6.013127 0.702502 -0.686141
C -7.218080 1.360133 -0.694755
C -7.293186 2.728222 -0.376922
C -3.594309 0.752347 -0.281034
C -3.433216 -0.684210 -0.705957
C -4.730030 -1.341868 -1.039394
C -5.896548 -0.696267 -1.033495
C -3.744150 3.485838 0.334182
C -2.504558 2.838337 0.401466
C -2.452968 1.432777 0.148957
C -1.307483 3.514480 0.671911
C -0.077111 2.861740 0.664075
C -0.024444 1.445030 0.479098
C -1.219567 0.734775 0.292243
C -2.488772 -2.854734 0.374179
C -1.251354 -3.521390 0.234423
C -1.232194 -4.948436 0.224429
C -2.448635 -5.658590 0.358732
C -3.619597 -4.989639 0.562377
C -3.633944 -3.588928 0.590351
C -1.214953 -0.680686 0.296063
C -0.026935 -1.375661 0.244702
C -0.020452 -2.811269 0.176560
C -2.555172 -1.355052 0.392950
C 1.222082 0.761766 0.506212
C 1.227382 -0.676002 0.296279
C 1.135025 3.562780 0.857791
C 2.326613 2.893146 0.870166
C 2.374638 1.507166 0.701056
C 1.190473 -3.503373 0.075705
C 1.199431 -4.935348 0.084111
C -0.014424 -5.621597 0.140577
C 2.391307 -1.393490 0.172945
C 2.424700 -2.793251 -0.022494
C 3.632001 -3.498816 -0.203257
C 3.642002 -4.910682 0.042838
C 2.428833 -5.598912 0.130395
C 4.875584 -2.878047 -0.584893
C 6.092720 -3.543758 -0.296403
C 6.082820 -4.884622 0.191353
C 4.862716 -5.566172 0.248911
C 6.156117 -1.062467 -1.562103
C 7.335910 -1.630206 -1.144421
C 7.332145 -2.896717 -0.527981
C 4.938286 -1.674962 -1.294233
C 8.525414 -3.548046 -0.154357
C 8.498565 -4.817910 0.383358
C 7.301577 -5.494856 0.531950
H -6.232874 4.480902 0.196679
H -8.121694 0.823591 -0.948571
H -8.255828 3.218307 -0.401857
H -3.002049 -1.065575 1.358143
H -4.673199 -2.368130 -1.371930
H -6.806588 -1.206769 -1.317610
H -3.794164 4.547172 0.531318
H -1.338426 4.576792 0.868961
H -2.422260 -6.738563 0.334171
H -4.544112 -5.529877 0.709118
H -4.563587 -3.078475 0.797167
H -2.830557 -0.702708 -1.631052
H 1.100198 4.634075 0.991548
H 3.251700 3.432335 1.016312
H 3.341730 1.030348 0.730116
H -0.006262 -6.702346 0.150176
H 3.337947 -0.894184 0.293650
H 2.442900 -6.670945 0.260092
H 4.855455 -6.617606 0.497664
H 6.166193 -0.127805 -2.104449
H 8.279638 -1.136556 -1.324136
H 4.032527 -1.238366 -1.686743
H 9.465493 -3.037739 -0.303473
H 9.422585 -5.299622 0.670115
H 7.290104 -6.504912 0.914746
