76
C51H25 GFN2-xTB helicoidal mult=4
C -6.226847 3.368931 0.170788
C -4.961116 2.757248 0.203226
C -4.832394 1.455407 0.775484
C -5.958994 0.859610 1.399327
C -7.206834 1.513603 1.333974
C -7.332547 2.737742 0.710111
C -3.586985 0.787437 0.766576
C -3.453168 -0.358331 1.555130
C -4.547210 -0.926417 2.191183
C -5.796030 -0.360639 2.079660
C -3.804940 3.409059 -0.227865
C -2.561794 2.760019 -0.281909
C -2.475198 1.363379 0.034436
C -1.416983 3.441556 -0.696477
C -0.185675 2.797476 -0.780541
C -0.136303 1.378574 -0.643703
C -1.325980 0.661223 -0.358728
C -2.437387 -2.893452 -1.030738
C -1.208393 -3.586866 -0.944367
C -1.182469 -5.002241 -1.092737
C -2.400331 -5.684808 -1.279780
C -3.594916 -4.997385 -1.343980
C -3.623098 -3.618688 -1.233469
C -1.301525 -0.780649 -0.581125
C -0.047952 -1.454115 -0.615900
C -0.007046 -2.863535 -0.752242
C -2.444406 -1.491318 -0.871042
C 1.117043 0.717200 -0.757930
C 1.172218 -0.733108 -0.611825
C 1.002054 3.516063 -1.042368
C 2.196025 2.861298 -1.137185
C 2.251612 1.472358 -0.995149
C 1.228347 -3.549430 -0.718708
C 1.254328 -4.964231 -0.928341
C 0.050847 -5.661250 -1.087395
C 2.362911 -1.427365 -0.547069
C 2.430213 -2.834389 -0.509061
C 3.666709 -3.541259 -0.413681
C 3.698018 -4.901516 -0.845764
C 2.495427 -5.593163 -1.048495
C 4.890449 -2.952953 0.049185
C 6.122676 -3.568044 -0.293885
C 6.140193 -4.843663 -0.929628
C 4.930786 -5.521423 -1.098586
C 6.140663 -1.233040 1.229128
C 7.333821 -1.739318 0.766418
C 7.351303 -2.935835 0.023330
C 4.935149 -1.827546 0.885773
C 8.559338 -3.531966 -0.392178
C 8.559909 -4.740221 -1.059477
C 7.374695 -5.405147 -1.307146
H -6.320967 4.346288 -0.279852
H -8.064237 1.044707 1.794090
H -8.299067 3.218524 0.658127
H -3.392059 -0.980458 -0.956985
H -4.411512 -1.828954 2.769089
H -6.657889 -0.822261 2.539172
H -3.867210 4.443293 -0.535468
H -1.486552 4.492499 -0.937282
H -2.383046 -6.759724 -1.381640
H -4.518401 -5.541042 -1.483733
H -4.559431 -3.082533 -1.287255
H -2.484123 -0.817481 1.666556
H 0.940673 4.588685 -1.151090
H 3.110561 3.405352 -1.324169
H 3.214667 0.994473 -1.079890
H 0.083336 -6.731335 -1.235360
H 3.294795 -0.890421 -0.592895
H 2.534251 -6.639503 -1.315692
H 4.938880 -6.536558 -1.467986
H 6.136423 -0.359938 1.867065
H 8.269949 -1.255986 1.007048
H 4.022413 -1.444881 1.315330
H 9.489986 -3.029183 -0.173003
H 9.496407 -5.180095 -1.371514
H 7.380002 -6.368341 -1.795757
