34
C22H12 GFN2-xTB mult=5
C -0.008290 1.404732 -0.002730
C 1.210651 0.698986 0.004296
C 1.212374 -0.709486 0.006017
C -0.010177 -1.396194 0.010630
C -1.213082 -0.700370 0.007201
C -1.214221 0.689246 -0.009126
C 2.459448 1.419962 0.001819
C 3.708473 0.698904 0.003319
C 3.706617 -0.709563 0.000743
C 2.459566 -1.404906 -0.005102
C 4.927279 1.404678 0.002757
C 6.133296 0.689177 -0.000768
C 6.132166 -0.700396 -0.003605
C 4.929272 -1.396234 0.000472
C 1.238791 3.564789 0.003414
C 2.459467 2.862146 0.001652
C 0.012994 2.832512 0.002763
C 3.680130 3.564760 -0.001769
C 4.905901 2.832438 0.008420
C 2.459495 5.660770 -0.005983
C 3.663505 4.966939 -0.008611
C 1.255485 4.966976 0.006290
H -0.008798 -2.476419 0.015920
H -2.148004 -1.240080 0.012065
H -2.148928 1.230477 -0.028498
H 2.459541 -2.483206 -0.028335
H 7.068075 1.230569 -0.002260
H 7.067099 -1.240169 -0.008663
H 4.927931 -2.476490 0.000863
H -0.921057 3.371823 0.003146
H 5.839776 3.371592 0.028531
H 2.459496 6.740313 -0.012353
H 4.599743 5.505828 -0.010173
H 0.319398 5.505896 0.021419
