34
C22H12 GFN2-xTB mult=3
C 0.004388 1.425625 -0.001584
C 1.235118 0.713082 0.001702
C 1.236813 -0.709033 0.001491
C 0.000422 -1.387620 0.009566
C -1.189785 -0.686894 0.003961
C -1.201471 0.694164 -0.006922
C 2.459492 1.419997 0.003743
C 3.683885 0.713104 0.001893
C 3.682207 -0.709010 -0.002262
C 2.459503 -1.390868 -0.005375
C 4.914630 1.425618 0.006485
C 6.120538 0.694176 0.001858
C 6.108794 -0.686922 -0.002982
C 4.918602 -1.387626 -0.003681
C 1.227077 3.543376 0.004649
C 2.459513 2.833796 0.001380
C 0.025231 2.825434 0.000608
C 3.691952 3.543397 0.002821
C 4.893799 2.825441 0.009409
C 2.459500 5.633818 -0.004088
C 3.661437 4.953445 -0.005298
C 1.257595 4.953447 0.006122
H -0.001562 -2.467638 0.016154
H -2.125333 -1.227005 0.008906
H -2.137754 1.232343 -0.022699
H 2.459452 -2.472026 -0.017601
H 7.056865 1.232488 -0.001502
H 7.044347 -1.227052 -0.007130
H 4.920584 -2.467674 -0.001419
H -0.911135 3.366036 0.002139
H 5.830138 3.366079 0.018039
H 2.459478 6.714097 -0.010025
H 4.595782 5.495170 -0.011295
H 0.323313 5.495233 0.016695
